DATASET = "thpack7";
INSTANCE = "012";

WIDTH = 233;
HEIGHT = 220;
LENGTH = 587;

NO_OF_SHAPES = 20;
size = [|
  95,80,57 |
  112,87,23 |
  116,41,40 |
  98,80,56 |
  108,60,59 |
  82,77,67 |
  67,46,36 |
  104,72,44 |
  89,56,24 |
  64,36,36 |
  101,86,31 |
  69,65,37 |
  106,39,22 |
  100,58,37 |
  56,53,35 |
  66,53,51 |
  116,36,20 |
  48,35,33 |
  63,62,41 |
  59,53,48 |
|];

verticality = [|
  1,1,1 |
  0,0,1 |
  0,1,1 |
  1,1,1 |
  1,1,1 |
  1,1,1 |
  1,1,1 |
  0,1,1 |
  0,0,1 |
  1,1,1 |
  0,0,1 |
  1,1,1 |
  0,1,1 |
  0,1,1 |
  1,1,1 |
  1,1,1 |
  0,1,1 |
  1,1,1 |
  1,1,1 |
  1,1,1 |
|];

box_count = [
  5,
  7,
  10,
  5,
  6,
  8,
  7,
  12,
  4,
  5,
  5,
  9,
  8,
  9,
  4,
  7,
  8,
  11,
  9,
  7,
];
